100
32
9
16
3
14
21
19
28
30
7
9
6
16
2
2
2
3
2
18
1
1
1
2
1
3
1
1
19
4
17
1
1
1
1
1
6
3
4
2
17
1
1
1
17
1
1
18
1
2
3
1
3
2
1
1
3
2
1
2
4
2
2
3
1
2
4
2
1
2
2
2
1
3
1
1
3
1
17
3
17
1
2
1
3
2
1
1
1
1
1
2
1
1
2
25
3
12
1
17
2
1